20J7M/DAT/20J7MNNL-9.dat
20 7
27.9389 27.9389
28.6338 28.6338
26.4877 26.4877
26.3951 26.3951
28.6277 28.6277
20.9305 20.9305
14.2052 14.2052
27.395 27.395
18.2079 18.2079
30.3124 30.3124
29.5926 29.5926
25.784 25.784
18.3565 18.3565
25.4368 25.4368
30.941 30.941
26.7369 26.7369
21.5583 21.5583
26.6049 26.6049
28.8075 28.8075
22.1542 22.1542
505.1069