20J7M/SOL/20J7MNNL-9.sol
solution status: optimal solution found
objective value:                     67.7786142857143
x#1#7                                               1 	(obj:0)
x#2#3                                               1 	(obj:0)
x#3#3                               0.241661642401939 	(obj:0)
x#3#6                               0.119388061029168 	(obj:0)
x#3#7                               0.638950296568893 	(obj:0)
x#4#7                                               1 	(obj:0)
x#5#4                              0.0702445403390449 	(obj:0)
x#5#6                               0.929755459660955 	(obj:0)
x#6#5                                               1 	(obj:0)
x#7#2                               0.838210551360393 	(obj:0)
x#7#5                               0.161789448639607 	(obj:0)
x#8#1                                               1 	(obj:0)
x#9#1                               0.752289330695763 	(obj:0)
x#9#4                               0.247710669304237 	(obj:0)
x#10#2                                              1 	(obj:0)
x#11#6                                              1 	(obj:0)
x#12#5                                              1 	(obj:0)
x#13#4                                              1 	(obj:0)
x#14#6                                              1 	(obj:0)
x#15#3                                              1 	(obj:0)
x#16#5                                              1 	(obj:0)
x#17#4                                              1 	(obj:0)
x#18#1                              0.935384677779587 	(obj:0)
x#18#2                             0.0646153222204134 	(obj:0)
x#19#4                                              1 	(obj:0)
x#20#2                                              1 	(obj:0)
z                                    67.7786142857143 	(obj:1)
